x = 23;
y = 10;
c = 75;
n = 60;

p = [33  44  57  39  52  76  44  32  91  95  100  68  52  27  32  38  41  29  99  47  64  40  88  100  31  50  27  47  92  55  37  48  92  47  42  11  91  68  94  13  48  10  100  26  51  24  61  39  63  15  11  73  60  64  61  49  12  45  45  72];
w = [3  2  3  4  5  9  10  6  1  1  7  2  7  10  3  1  4  5  7  10  10  9  1  2  1  6  9  7  7  6  6  5  5  4  9  3  9  10  8  3  9  10  1  9  8  2  8  5  4  8  3  5  9  1  9  6  6  3  9  1];
s = [4  10  1  8  9  4  10  6  5  3  9  1  2  3  5  10  4  7  10  3  7  4  4  3  8  10  1  1  2  5  2  9  4  4  1  5  10  8  9  8  7  5  9  4  3  5  9  8  3  5  9  9  7  9  3  4  7  5  5  10];
